NAME: S076D4_20
COMMENT: 2171.96
VEHICLE: 37
TIME: 540.3329
DIMENSION: 76
CAPACITY: 160
DELIVERY_SECTION
0 0 0
1 1 32
2 1 32
3 1 16
4 1 1.6
5 1 1.6
6 1 1.6
7 1 1.2
8 2 32
9 2 8
10 2 1.6
11 2 1.6
12 2 1.6
13 2 1.2
14 3 32
15 3 32
16 3 32
17 3 32
18 3 8
19 3 1.6
20 3 1.4
21 4 32
22 4 32
23 4 1
24 5 32
25 5 1.6
26 5 1.6
27 5 0.8
28 6 32
29 6 1.6
30 6 1.6
31 6 1.6
32 6 1.6
33 6 0.6
34 7 32
35 7 32
36 7 32
37 7 32
38 7 8
39 7 1.6
40 7 1.6
41 7 1.6
42 7 1.6
43 7 0.6
44 8 32
45 8 8
46 8 1
47 9 32
48 9 16
49 9 1.6
50 9 1.4
51 10 32
52 10 1
53 11 32
54 11 32
55 11 32
56 11 32
57 11 8
58 11 1.6
59 11 0.4
60 12 16
61 12 1.6
62 12 1.6
63 12 1.6
64 12 1.2
65 13 32
66 13 32
67 13 32
68 13 1.6
69 13 1.6
70 13 1.6
71 13 1.2
72 14 16
73 14 8
74 14 1.6
75 14 1.6
76 14 1.6
77 14 0.2
78 15 32
79 15 32
80 15 32
81 15 16
82 15 1.6
83 15 1.6
84 15 1.6
85 15 1.2
86 16 16
87 16 8
88 16 1
89 17 32
90 17 32
91 17 32
92 17 32
93 17 1.6
94 17 1.6
95 17 1.6
96 17 1.6
97 17 0.6
98 18 16
99 18 8
100 18 1.6
101 18 0.4
102 19 32
103 19 32
104 19 16
105 19 1.6
106 19 0.4
107 20 32
108 20 1.6
109 20 1.6
110 20 1.6
111 20 0.2
112 21 32
113 21 32
114 21 32
115 21 32
116 21 8
117 21 1.6
118 21 1.6
119 21 1.6
120 21 1.6
121 21 0.6
122 22 16
123 22 8
124 22 1
125 23 32
126 23 1.6
127 23 1.4
128 24 32
129 24 8
130 24 1.6
131 24 1.6
132 24 0.8
133 25 32
134 25 32
135 25 32
136 25 16
137 25 8
138 25 1.6
139 25 1.6
140 25 0.8
141 26 16
142 26 8
143 27 32
144 27 16
145 27 1.6
146 27 0.4
147 28 32
148 28 8
149 28 1.6
150 28 1.6
151 28 1.6
152 28 1.6
153 28 0.6
154 29 32
155 29 32
156 29 16
157 29 1.6
158 29 1.6
159 29 0.8
160 30 16
161 30 8
162 31 32
163 31 32
164 31 32
165 31 1.6
166 31 1.6
167 31 0.8
168 32 32
169 32 8
170 32 1.6
171 32 1.6
172 32 1.6
173 32 1.6
174 32 0.6
175 33 16
176 33 8
177 33 1.6
178 33 1.6
179 33 1.6
180 33 1.6
181 33 0.6
182 34 16
183 34 8
184 35 32
185 35 32
186 35 32
187 35 32
188 35 1.6
189 35 1.6
190 35 1.6
191 35 0.2
192 36 32
193 36 8
194 36 1.6
195 36 0.4
196 37 32
197 37 16
198 37 1.6
199 37 1.6
200 37 0.8
201 38 16
202 38 8
203 38 1
204 39 32
205 39 32
206 39 32
207 39 32
208 39 8
209 39 1.6
210 39 1.6
211 39 1.6
212 39 1.6
213 39 0.6
214 40 32
215 40 1
216 41 32
217 41 32
218 41 32
219 42 16
220 42 8
221 42 1.6
222 42 1.4
223 43 32
224 43 32
225 43 32
226 43 16
227 43 8
228 43 1.6
229 43 1.6
230 43 1.6
231 43 1.2
232 44 16
233 44 1.6
234 44 1.6
235 44 0.8
236 45 32
237 45 32
238 45 32
239 45 16
240 45 8
241 45 1.6
242 45 1.6
243 45 1.6
244 45 1.2
245 46 16
246 46 8
247 46 1.6
248 46 1.6
249 46 1.6
250 46 1.6
251 46 0.6
252 47 32
253 47 32
254 47 16
255 47 1.6
256 47 1.6
257 47 1.6
258 47 1.2
259 48 16
260 48 8
261 48 1.6
262 48 1.6
263 48 0.8
264 49 32
265 49 32
266 49 32
267 49 32
268 49 8
269 49 1.6
270 49 1.6
271 49 1.6
272 49 0.2
273 50 32
274 50 1.6
275 50 1.4
276 51 32
277 52 32
278 52 16
279 52 1
280 53 32
281 53 32
282 53 32
283 53 32
284 53 8
285 53 1.6
286 53 1.6
287 53 1.6
288 53 1.6
289 53 0.6
290 54 32
291 54 8
292 54 1
293 55 32
294 55 16
295 55 1.6
296 55 1.6
297 55 1.6
298 55 1.6
299 55 0.6
300 56 32
301 56 32
302 56 8
303 56 1
304 57 32
305 57 32
306 57 32
307 57 32
308 57 1.6
309 57 1.6
310 57 1.6
311 57 1.6
312 57 0.6
313 58 32
314 58 16
315 58 1
316 59 32
317 59 32
318 59 32
319 59 1.6
320 59 1.6
321 59 1.6
322 59 0.2
323 60 32
324 60 32
325 60 32
326 60 1.6
327 60 0.4
328 61 32
329 61 32
330 61 32
331 61 16
332 61 8
333 61 1
334 62 32
335 62 16
336 62 8
337 62 1.6
338 62 1.6
339 62 0.8
340 63 32
341 63 32
342 63 32
343 63 32
344 63 1.6
345 63 1.4
346 64 32
347 64 32
348 64 32
349 64 16
350 64 8
351 64 1
352 65 32
353 65 32
354 65 32
355 65 8
356 65 1
357 66 32
358 66 32
359 66 8
360 67 32
361 67 32
362 67 32
363 67 32
364 67 8
365 67 1.6
366 67 1.6
367 67 1.6
368 67 1.6
369 67 0.6
370 68 32
371 68 32
372 68 32
373 68 32
374 68 8
375 68 1.6
376 68 0.4
377 69 32
378 69 32
379 69 16
380 69 8
381 69 1
382 70 32
383 70 32
384 70 16
385 70 1.6
386 70 1.6
387 70 1.6
388 70 1.6
389 70 0.6
390 71 32
391 71 32
392 71 32
393 71 32
394 71 8
395 71 1.6
396 71 1.4
397 72 32
398 72 32
399 72 32
400 72 32
401 72 8
402 72 1.6
403 72 1.6
404 72 1.6
405 72 1.6
406 72 0.6
407 73 32
408 73 32
409 73 8
410 73 1.6
411 73 0.4
412 74 32
413 74 32
414 74 32
415 74 1.6
416 74 1.6
417 74 1.6
418 74 1.6
419 74 0.6
420 75 32
421 75 32
422 75 32
423 75 16
424 75 8
425 75 1.6
426 75 1.6
427 75 0.8
PICKUP_SECTION
NODE_SECTION
40 40

22 22

36 26

21 45

45 35

55 20

33 34

50 50

55 45

26 59

40 66

55 65

35 51

62 35

62 57

62 24

21 36

33 44

 9 56

62 48

66 14

44 13

26 13

11 28

 7 43

17 64

41 46

55 34

35 16

52 26

43 26

31 76

22 53

26 29

50 40

55 50

54 10

60 15

47 66

30 60

30 50

12 17

15 14

16 19

21 48

50 30

51 42

50 15

48 21

12 38

15 56

29 39

54 38

55 57

67 41

10 70

 6 25

65 27

40 60

70 64

64  4

36  6

30 20

20 30

15  5

50 70

57 72

45 42

38 33

50  4

66  8

59  5

35 60

27 24

40 20

40 37
DISTANCE_SECTION
DEPOT_SECTION
0
EOF